(set-info :source |printed by MathSAT|)
(declare-fun |.x{1371}| () Int)
(declare-fun |.x{1423}| () Int)
(declare-fun |.x{1372}| () (Array Int Int))
(declare-fun |.x{1424}| () (Array Int Int))
(declare-fun |.x{1373}| () (Array Int Int))
(declare-fun |.x{1425}| () (Array Int Int))
(declare-fun |.x{1374}| () (Array Int (Array Int Int)))
(declare-fun |.x{1426}| () (Array Int (Array Int Int)))
(declare-fun |.x{1375}| () (Array Int (Array Int Int)))
(declare-fun |.x{1427}| () (Array Int (Array Int Int)))
(declare-fun |.x{1376}| () Int)
(declare-fun |.x{1428}| () Int)
(declare-fun |.x{1377}| () Int)
(declare-fun |.x{1429}| () Int)
(declare-fun |.x{1378}| () (Array Int Int))
(declare-fun |.x{1430}| () (Array Int Int))
(declare-fun |.x{1379}| () (Array Int Int))
(declare-fun |.x{1431}| () (Array Int Int))
(declare-fun |.x{1380}| () Int)
(declare-fun |.x{1432}| () Int)
(declare-fun |.x{1381}| () Int)
(declare-fun |.x{1433}| () Int)
(declare-fun |.x{1382}| () Int)
(declare-fun |.x{1434}| () Int)
(declare-fun |.x{1383}| () Int)
(declare-fun |.x{1435}| () Int)
(declare-fun |.x{1384}| () Int)
(declare-fun |.x{1436}| () Int)
(declare-fun |.x{1385}| () Int)
(declare-fun |.x{1437}| () Int)
(declare-fun |.x{1386}| () Int)
(declare-fun |.x{1438}| () Int)
(declare-fun |.x{1387}| () Int)
(declare-fun |.x{1439}| () Int)
(declare-fun |.x{1388}| () Int)
(declare-fun |.x{1440}| () Int)
(declare-fun |.x{1389}| () Int)
(declare-fun |.x{1441}| () Int)
(declare-fun |.x{1390}| () Int)
(declare-fun |.x{1442}| () Int)
(declare-fun |.x{1391}| () Int)
(declare-fun |.x{1443}| () Int)
(declare-fun |.x{1392}| () Int)
(declare-fun |.x{1444}| () Int)
(declare-fun |.x{1393}| () Int)
(declare-fun |.x{1445}| () Int)
(declare-fun |.x{1394}| () Int)
(declare-fun |.x{1446}| () Int)
(declare-fun |.x{1395}| () Int)
(declare-fun |.x{1447}| () Int)
(declare-fun |.x{1422}| () Bool)
(declare-fun |.x{1396}| () Bool)
(declare-fun |.loc{5}| () Bool)
(declare-fun |.loc{9}| () Bool)
(declare-fun |.loc{6}| () Bool)
(declare-fun |.loc{10}| () Bool)
(declare-fun |.loc{7}| () Bool)
(declare-fun |.loc{11}| () Bool)
(declare-fun |.loc{8}| () Bool)
(declare-fun |.loc{12}| () Bool)
(declare-fun |.x{103}| () (Array Int Int))
(define-fun .def_62 () Bool (! |.loc{6}| :next |.loc{10}|))
(define-fun .def_80 () Bool (not .def_62))
(define-fun .def_60 () Bool (! |.loc{5}| :next |.loc{9}|))
(define-fun .def_544 () Bool (and .def_60 .def_80))
(define-fun .def_64 () Bool (! |.loc{7}| :next |.loc{11}|))
(define-fun .def_82 () Bool (not .def_64))
(define-fun .def_545 () Bool (and .def_82 .def_544))
(define-fun .def_66 () Bool (! |.loc{8}| :next |.loc{12}|))
(define-fun .def_73 () Bool (not .def_66))
(define-fun .def_546 () Bool (and .def_73 .def_545))
(define-fun .def_58 () Bool (! |.x{1422}| :next |.x{1396}|))
(define-fun .def_538 () Bool (not .def_58))
(define-fun .def_16 () (Array Int (Array Int Int)) (! |.x{1375}| :next |.x{1427}|))
(define-fun .def_14 () (Array Int (Array Int Int)) (! |.x{1374}| :next |.x{1426}|))
(define-fun .def_537 () Bool (= .def_14 .def_16))
(define-fun .def_539 () Bool (and .def_537 .def_538))
(define-fun .def_28 () Int (! |.x{1381}| :next |.x{1433}|))
(define-fun .def_26 () Int (! |.x{1380}| :next |.x{1432}|))
(define-fun .def_536 () Bool (= .def_26 .def_28))
(define-fun .def_540 () Bool (and .def_536 .def_539))
(define-fun .def_20 () Int (! |.x{1377}| :next |.x{1429}|))
(define-fun .def_18 () Int (! |.x{1376}| :next |.x{1428}|))
(define-fun .def_535 () Bool (= .def_18 .def_20))
(define-fun .def_541 () Bool (and .def_535 .def_540))
(define-fun .def_24 () (Array Int Int) (! |.x{1379}| :next |.x{1431}|))
(define-fun .def_22 () (Array Int Int) (! |.x{1378}| :next |.x{1430}|))
(define-fun .def_534 () Bool (= .def_22 .def_24))
(define-fun .def_542 () Bool (and .def_534 .def_541))
(define-fun .def_12 () (Array Int Int) (! |.x{1373}| :next |.x{1425}|))
(define-fun .def_10 () (Array Int Int) (! |.x{1372}| :next |.x{1424}|))
(define-fun .def_533 () Bool (= .def_10 .def_12))
(define-fun .def_543 () Bool (and .def_533 .def_542))
(define-fun .def_547 () Bool (! (and .def_543 .def_546) :init true))
(define-fun .def_530 () Bool (= .def_16 |.x{1427}|))
(define-fun .def_528 () Bool (= .def_12 |.x{1425}|))
(define-fun .def_8 () Int (! |.x{1371}| :next |.x{1423}|))
(define-fun .def_526 () Bool (= .def_8 |.x{1423}|))
(define-fun .def_524 () Bool (= .def_28 |.x{1433}|))
(define-fun .def_522 () Bool (= .def_20 |.x{1429}|))
(define-fun .def_521 () Bool (= .def_24 |.x{1431}|))
(define-fun .def_523 () Bool (and .def_521 .def_522))
(define-fun .def_525 () Bool (and .def_523 .def_524))
(define-fun .def_527 () Bool (and .def_525 .def_526))
(define-fun .def_529 () Bool (and .def_527 .def_528))
(define-fun .def_531 () Bool (and .def_529 .def_530))
(define-fun .def_30 () Int (! |.x{1382}| :next |.x{1434}|))
(define-fun .def_141 () Bool (= .def_30 |.x{1434}|))
(define-fun .def_478 () Bool (and |.x{1396}| .def_141))
(define-fun .def_42 () Int (! |.x{1388}| :next |.x{1440}|))
(define-fun .def_71 () Bool (= .def_42 |.x{1440}|))
(define-fun .def_479 () Bool (and .def_71 .def_478))
(define-fun .def_44 () Int (! |.x{1389}| :next |.x{1441}|))
(define-fun .def_151 () Bool (= .def_44 |.x{1441}|))
(define-fun .def_480 () Bool (and .def_151 .def_479))
(define-fun .def_46 () Int (! |.x{1390}| :next |.x{1442}|))
(define-fun .def_153 () Bool (= .def_46 |.x{1442}|))
(define-fun .def_481 () Bool (and .def_153 .def_480))
(define-fun .def_50 () Int (! |.x{1392}| :next |.x{1444}|))
(define-fun .def_159 () Bool (= .def_50 |.x{1444}|))
(define-fun .def_482 () Bool (and .def_159 .def_481))
(define-fun .def_54 () Int (! |.x{1394}| :next |.x{1446}|))
(define-fun .def_162 () Bool (= .def_54 |.x{1446}|))
(define-fun .def_483 () Bool (and .def_162 .def_482))
(define-fun .def_167 () Bool (not .def_60))
(define-fun .def_484 () Bool (and .def_167 .def_483))
(define-fun .def_189 () Bool (= .def_10 |.x{1424}|))
(define-fun .def_485 () Bool (and .def_189 .def_484))
(define-fun .def_486 () Bool (and .def_189 .def_485))
(define-fun .def_471 () (Array Int Int) (store .def_10 .def_44 0))
(define-fun .def_472 () (Array Int Int) (store .def_471 .def_50 0))
(define-fun .def_473 () Bool (= |.x{1424}| .def_472))
(define-fun .def_470 () Bool (= |.x{1442}| 0))
(define-fun .def_474 () Bool (and .def_470 .def_473))
(define-fun .def_475 () Bool (or .def_58 .def_474))
(define-fun .def_467 () Bool (= |.x{1440}| |.x{1442}|))
(define-fun .def_468 () Bool (or |.x{1396}| .def_467))
(define-fun .def_75 () Bool (= .def_58 |.x{1396}|))
(define-fun .def_469 () Bool (and .def_75 .def_468))
(define-fun .def_476 () Bool (and .def_469 .def_475))
(define-fun .def_477 () Bool (and .def_60 .def_476))
(define-fun .def_487 () Bool (or .def_477 .def_486))
(define-fun .def_488 () Bool (and .def_66 .def_487))
(define-fun .def_489 () Bool (and .def_80 .def_488))
(define-fun .def_490 () Bool (and .def_82 .def_489))
(define-fun .def_491 () Bool (and |.loc{10}| .def_490))
(define-fun .def_492 () Bool (and |.loc{10}| .def_491))
(define-fun .def_32 () Int (! |.x{1383}| :next |.x{1435}|))
(define-fun .def_268 () Bool (= .def_32 0))
(define-fun .def_460 () Bool (or .def_58 .def_268))
(define-fun .def_453 () Bool (and .def_71 .def_141))
(define-fun .def_454 () Bool (and .def_151 .def_453))
(define-fun .def_234 () Bool (not |.loc{10}|))
(define-fun .def_455 () Bool (and .def_234 .def_454))
(define-fun .def_456 () Bool (and .def_153 .def_455))
(define-fun .def_457 () Bool (and .def_73 .def_456))
(define-fun .def_458 () Bool (and .def_75 .def_457))
(define-fun .def_459 () Bool (and .def_159 .def_458))
(define-fun .def_461 () Bool (and .def_459 .def_460))
(define-fun .def_462 () Bool (and .def_60 .def_461))
(define-fun .def_463 () Bool (and .def_162 .def_462))
(define-fun .def_464 () Bool (and .def_62 .def_463))
(define-fun .def_465 () Bool (and .def_64 .def_464))
(define-fun .def_466 () Bool (and .def_189 .def_465))
(define-fun .def_493 () Bool (or .def_466 .def_492))
(define-fun .def_69 () Bool (= .def_32 |.x{1435}|))
(define-fun .def_494 () Bool (and .def_69 .def_493))
(define-fun .def_52 () Int (! |.x{1393}| :next |.x{1445}|))
(define-fun .def_77 () Bool (= .def_52 |.x{1445}|))
(define-fun .def_495 () Bool (and .def_77 .def_494))
(define-fun .def_56 () Int (! |.x{1395}| :next |.x{1447}|))
(define-fun .def_165 () Bool (= .def_56 |.x{1447}|))
(define-fun .def_496 () Bool (and .def_165 .def_495))
(define-fun .def_497 () Bool (and |.loc{12}| .def_496))
(define-fun .def_124 () Bool (not |.loc{9}|))
(define-fun .def_498 () Bool (and .def_124 .def_497))
(define-fun .def_126 () Bool (not |.loc{11}|))
(define-fun .def_499 () Bool (and .def_126 .def_498))
(define-fun .def_40 () Int (! |.x{1387}| :next |.x{1439}|))
(define-fun .def_355 () Bool (<= 100000 .def_40))
(define-fun .def_441 () Bool (not .def_355))
(define-fun .def_440 () Bool (= |.x{1435}| |.x{1445}|))
(define-fun .def_442 () Bool (and .def_440 .def_441))
(define-fun .def_435 () Int (* 4 .def_40))
(define-fun .def_437 () Int (+ .def_435 .def_54))
(define-fun .def_303 () (Array Int Int) (select .def_14 .def_50))
(define-fun .def_438 () Int (select .def_303 .def_437))
(define-fun .def_439 () Bool (= |.x{1447}| .def_438))
(define-fun .def_443 () Bool (and .def_439 .def_442))
(define-fun .def_432 () Bool (= |.x{1447}| 42))
(define-fun .def_433 () Int (ite .def_432 1 0))
(define-fun .def_434 () Bool (= |.x{1445}| .def_433))
(define-fun .def_444 () Bool (and .def_434 .def_443))
(define-fun .def_445 () Bool (or .def_58 .def_444))
(define-fun .def_68 () Bool (not |.loc{12}|))
(define-fun .def_423 () Bool (and .def_68 .def_141))
(define-fun .def_424 () Bool (and .def_71 .def_423))
(define-fun .def_425 () Bool (and .def_151 .def_424))
(define-fun .def_426 () Bool (and .def_153 .def_425))
(define-fun .def_427 () Bool (and .def_73 .def_426))
(define-fun .def_428 () Bool (and .def_75 .def_427))
(define-fun .def_429 () Bool (and .def_159 .def_428))
(define-fun .def_430 () Bool (and .def_162 .def_429))
(define-fun .def_431 () Bool (and .def_62 .def_430))
(define-fun .def_446 () Bool (and .def_431 .def_445))
(define-fun .def_447 () Bool (and .def_64 .def_446))
(define-fun .def_448 () Bool (and .def_167 .def_447))
(define-fun .def_449 () Bool (and .def_189 .def_448))
(define-fun .def_450 () Bool (and |.loc{9}| .def_449))
(define-fun .def_451 () Bool (and |.loc{10}| .def_450))
(define-fun .def_452 () Bool (and |.loc{11}| .def_451))
(define-fun .def_500 () Bool (or .def_452 .def_499))
(define-fun .def_148 () Bool (= .def_40 |.x{1439}|))
(define-fun .def_34 () Int (! |.x{1384}| :next |.x{1436}|))
(define-fun .def_143 () Bool (= .def_34 |.x{1436}|))
(define-fun .def_422 () Bool (and .def_143 .def_148))
(define-fun .def_501 () Bool (and .def_422 .def_500))
(define-fun .def_407 () Int (* (- 1) |.x{1439}|))
(define-fun .def_408 () Int (+ .def_40 .def_407))
(define-fun .def_409 () Bool (= .def_408 (- 1)))
(define-fun .def_410 () Bool (or |.x{1396}| .def_409))
(define-fun .def_142 () Bool (and .def_69 .def_141))
(define-fun .def_401 () Bool (and .def_68 .def_142))
(define-fun .def_402 () Bool (and .def_71 .def_401))
(define-fun .def_403 () Bool (and .def_151 .def_402))
(define-fun .def_404 () Bool (and .def_153 .def_403))
(define-fun .def_405 () Bool (and .def_73 .def_404))
(define-fun .def_406 () Bool (and .def_75 .def_405))
(define-fun .def_411 () Bool (and .def_406 .def_410))
(define-fun .def_412 () Bool (and .def_159 .def_411))
(define-fun .def_413 () Bool (and .def_77 .def_412))
(define-fun .def_414 () Bool (and .def_162 .def_413))
(define-fun .def_415 () Bool (and .def_167 .def_414))
(define-fun .def_416 () Bool (and .def_80 .def_415))
(define-fun .def_417 () Bool (and .def_82 .def_416))
(define-fun .def_418 () Bool (and .def_189 .def_417))
(define-fun .def_419 () Bool (and |.loc{10}| .def_418))
(define-fun .def_420 () Bool (and |.loc{11}| .def_419))
(define-fun .def_421 () Bool (and .def_124 .def_420))
(define-fun .def_502 () Bool (or .def_421 .def_501))
(define-fun .def_381 () Bool (= |.x{1439}| 0))
(define-fun .def_382 () Bool (or .def_58 .def_381))
(define-fun .def_144 () Bool (and .def_142 .def_143))
(define-fun .def_383 () Bool (and .def_144 .def_382))
(define-fun .def_384 () Bool (and .def_68 .def_383))
(define-fun .def_385 () Bool (and .def_71 .def_384))
(define-fun .def_386 () Bool (and .def_151 .def_385))
(define-fun .def_387 () Bool (and .def_153 .def_386))
(define-fun .def_388 () Bool (and .def_73 .def_387))
(define-fun .def_389 () Bool (and .def_75 .def_388))
(define-fun .def_390 () Bool (and .def_159 .def_389))
(define-fun .def_391 () Bool (and .def_77 .def_390))
(define-fun .def_392 () Bool (and .def_60 .def_391))
(define-fun .def_393 () Bool (and .def_162 .def_392))
(define-fun .def_394 () Bool (and .def_64 .def_393))
(define-fun .def_395 () Bool (and .def_165 .def_394))
(define-fun .def_396 () Bool (and .def_80 .def_395))
(define-fun .def_397 () Bool (and .def_189 .def_396))
(define-fun .def_398 () Bool (and |.loc{10}| .def_397))
(define-fun .def_399 () Bool (and |.loc{11}| .def_398))
(define-fun .def_400 () Bool (and .def_124 .def_399))
(define-fun .def_503 () Bool (or .def_400 .def_502))
(define-fun .def_357 () Bool (and .def_144 .def_148))
(define-fun .def_358 () Bool (and .def_71 .def_357))
(define-fun .def_359 () Bool (and .def_151 .def_358))
(define-fun .def_360 () Bool (and .def_234 .def_359))
(define-fun .def_361 () Bool (and .def_153 .def_360))
(define-fun .def_362 () Bool (and .def_73 .def_361))
(define-fun .def_363 () Bool (and .def_75 .def_362))
(define-fun .def_364 () Bool (and .def_159 .def_363))
(define-fun .def_365 () Bool (and .def_77 .def_364))
(define-fun .def_366 () Bool (and .def_162 .def_365))
(define-fun .def_367 () Bool (and .def_62 .def_366))
(define-fun .def_368 () Bool (and .def_64 .def_367))
(define-fun .def_369 () Bool (and .def_165 .def_368))
(define-fun .def_370 () Bool (and .def_167 .def_369))
(define-fun .def_376 () Bool (and .def_189 .def_370))
(define-fun .def_377 () Bool (and |.loc{9}| .def_376))
(define-fun .def_378 () Bool (and |.loc{12}| .def_377))
(define-fun .def_379 () Bool (and .def_58 .def_378))
(define-fun .def_380 () Bool (and .def_126 .def_379))
(define-fun .def_504 () Bool (or .def_380 .def_503))
(define-fun .def_356 () Bool (or .def_58 .def_355))
(define-fun .def_371 () Bool (and .def_356 .def_370))
(define-fun .def_372 () Bool (and .def_189 .def_371))
(define-fun .def_373 () Bool (and |.loc{9}| .def_372))
(define-fun .def_374 () Bool (and |.loc{12}| .def_373))
(define-fun .def_375 () Bool (and .def_126 .def_374))
(define-fun .def_505 () Bool (or .def_375 .def_504))
(define-fun .def_327 () Bool (and .def_68 .def_144))
(define-fun .def_328 () Bool (and .def_148 .def_327))
(define-fun .def_329 () Bool (and .def_71 .def_328))
(define-fun .def_330 () Bool (and .def_151 .def_329))
(define-fun .def_331 () Bool (and .def_234 .def_330))
(define-fun .def_332 () Bool (and .def_153 .def_331))
(define-fun .def_333 () Bool (and .def_73 .def_332))
(define-fun .def_334 () Bool (and .def_75 .def_333))
(define-fun .def_335 () Bool (and .def_159 .def_334))
(define-fun .def_336 () Bool (and .def_77 .def_335))
(define-fun .def_346 () Bool (and .def_162 .def_336))
(define-fun .def_347 () Bool (and .def_64 .def_346))
(define-fun .def_348 () Bool (and .def_165 .def_347))
(define-fun .def_349 () Bool (and .def_167 .def_348))
(define-fun .def_350 () Bool (and .def_80 .def_349))
(define-fun .def_351 () Bool (and .def_189 .def_350))
(define-fun .def_352 () Bool (and |.loc{9}| .def_351))
(define-fun .def_353 () Bool (and |.loc{11}| .def_352))
(define-fun .def_354 () Bool (and .def_58 .def_353))
(define-fun .def_506 () Bool (or .def_354 .def_505))
(define-fun .def_36 () Int (! |.x{1385}| :next |.x{1437}|))
(define-fun .def_178 () Bool (<= 100000 .def_36))
(define-fun .def_207 () Bool (or .def_58 .def_178))
(define-fun .def_337 () Bool (and .def_207 .def_336))
(define-fun .def_338 () Bool (and .def_162 .def_337))
(define-fun .def_339 () Bool (and .def_64 .def_338))
(define-fun .def_340 () Bool (and .def_165 .def_339))
(define-fun .def_341 () Bool (and .def_167 .def_340))
(define-fun .def_342 () Bool (and .def_80 .def_341))
(define-fun .def_343 () Bool (and .def_189 .def_342))
(define-fun .def_344 () Bool (and |.loc{9}| .def_343))
(define-fun .def_345 () Bool (and |.loc{11}| .def_344))
(define-fun .def_507 () Bool (or .def_345 .def_506))
(define-fun .def_194 () Bool (= .def_36 |.x{1437}|))
(define-fun .def_508 () Bool (and .def_194 .def_507))
(define-fun .def_38 () Int (! |.x{1386}| :next |.x{1438}|))
(define-fun .def_145 () Bool (= .def_38 |.x{1438}|))
(define-fun .def_509 () Bool (and .def_145 .def_508))
(define-fun .def_48 () Int (! |.x{1391}| :next |.x{1443}|))
(define-fun .def_156 () Bool (= .def_48 |.x{1443}|))
(define-fun .def_510 () Bool (and .def_156 .def_509))
(define-fun .def_122 () Bool (= .def_14 |.x{1426}|))
(define-fun .def_511 () Bool (and .def_122 .def_510))
(define-fun .def_171 () Int (* 4 .def_36))
(define-fun .def_172 () Int (+ .def_30 .def_171))
(define-fun .def_173 () (Array Int Int) (select .def_14 .def_44))
(define-fun .def_301 () Int (select .def_173 .def_172))
(define-fun .def_304 () Int (+ .def_171 .def_54))
(define-fun .def_305 () (Array Int Int) (store .def_303 .def_304 .def_301))
(define-fun .def_306 () (Array Int (Array Int Int)) (store .def_14 .def_50 .def_305))
(define-fun .def_307 () Bool (= |.x{1426}| .def_306))
(define-fun .def_179 () Bool (not .def_178))
(define-fun .def_308 () Bool (and .def_179 .def_307))
(define-fun .def_309 () Bool (or .def_58 .def_308))
(define-fun .def_181 () Int (* (- 1) |.x{1437}|))
(define-fun .def_182 () Int (+ .def_36 .def_181))
(define-fun .def_183 () Bool (= .def_182 (- 1)))
(define-fun .def_296 () Bool (or |.x{1396}| .def_183))
(define-fun .def_297 () Bool (and .def_142 .def_296))
(define-fun .def_298 () Bool (and .def_143 .def_297))
(define-fun .def_299 () Bool (and .def_68 .def_298))
(define-fun .def_300 () Bool (and .def_148 .def_299))
(define-fun .def_310 () Bool (and .def_300 .def_309))
(define-fun .def_311 () Bool (and .def_71 .def_310))
(define-fun .def_312 () Bool (and .def_151 .def_311))
(define-fun .def_313 () Bool (and .def_234 .def_312))
(define-fun .def_314 () Bool (and .def_153 .def_313))
(define-fun .def_315 () Bool (and .def_73 .def_314))
(define-fun .def_316 () Bool (and .def_75 .def_315))
(define-fun .def_317 () Bool (and .def_159 .def_316))
(define-fun .def_318 () Bool (and .def_77 .def_317))
(define-fun .def_319 () Bool (and .def_162 .def_318))
(define-fun .def_320 () Bool (and .def_64 .def_319))
(define-fun .def_321 () Bool (and .def_165 .def_320))
(define-fun .def_322 () Bool (and .def_167 .def_321))
(define-fun .def_323 () Bool (and .def_80 .def_322))
(define-fun .def_324 () Bool (and .def_189 .def_323))
(define-fun .def_325 () Bool (and |.loc{11}| .def_324))
(define-fun .def_326 () Bool (and .def_124 .def_325))
(define-fun .def_512 () Bool (or .def_326 .def_511))
(define-fun .def_269 () Bool (not .def_268))
(define-fun .def_270 () Bool (or .def_58 .def_269))
(define-fun .def_271 () Bool (and .def_141 .def_270))
(define-fun .def_272 () Bool (and .def_69 .def_271))
(define-fun .def_273 () Bool (and .def_143 .def_272))
(define-fun .def_274 () Bool (and .def_194 .def_273))
(define-fun .def_275 () Bool (and .def_145 .def_274))
(define-fun .def_276 () Bool (and .def_68 .def_275))
(define-fun .def_277 () Bool (and .def_148 .def_276))
(define-fun .def_278 () Bool (and .def_71 .def_277))
(define-fun .def_279 () Bool (and .def_151 .def_278))
(define-fun .def_280 () Bool (and .def_234 .def_279))
(define-fun .def_281 () Bool (and .def_153 .def_280))
(define-fun .def_282 () Bool (and .def_73 .def_281))
(define-fun .def_283 () Bool (and .def_156 .def_282))
(define-fun .def_284 () Bool (and .def_75 .def_283))
(define-fun .def_285 () Bool (and .def_159 .def_284))
(define-fun .def_286 () Bool (and .def_77 .def_285))
(define-fun .def_287 () Bool (and .def_60 .def_286))
(define-fun .def_288 () Bool (and .def_162 .def_287))
(define-fun .def_289 () Bool (and .def_62 .def_288))
(define-fun .def_290 () Bool (and .def_64 .def_289))
(define-fun .def_291 () Bool (and .def_165 .def_290))
(define-fun .def_292 () Bool (and .def_189 .def_291))
(define-fun .def_293 () Bool (and .def_122 .def_292))
(define-fun .def_294 () Bool (and .def_124 .def_293))
(define-fun .def_295 () Bool (and .def_126 .def_294))
(define-fun .def_513 () Bool (or .def_295 .def_512))
(define-fun .def_195 () Bool (and .def_144 .def_194))
(define-fun .def_196 () Bool (and .def_145 .def_195))
(define-fun .def_197 () Bool (and .def_68 .def_196))
(define-fun .def_198 () Bool (and .def_148 .def_197))
(define-fun .def_199 () Bool (and .def_71 .def_198))
(define-fun .def_200 () Bool (and .def_151 .def_199))
(define-fun .def_251 () Bool (and .def_200 .def_234))
(define-fun .def_252 () Bool (and .def_153 .def_251))
(define-fun .def_253 () Bool (and .def_156 .def_252))
(define-fun .def_254 () Bool (and .def_75 .def_253))
(define-fun .def_255 () Bool (and .def_159 .def_254))
(define-fun .def_256 () Bool (and .def_77 .def_255))
(define-fun .def_257 () Bool (and .def_162 .def_256))
(define-fun .def_258 () Bool (and .def_66 .def_257))
(define-fun .def_259 () Bool (and .def_165 .def_258))
(define-fun .def_260 () Bool (and .def_167 .def_259))
(define-fun .def_261 () Bool (and .def_80 .def_260))
(define-fun .def_262 () Bool (and .def_82 .def_261))
(define-fun .def_263 () Bool (and .def_189 .def_262))
(define-fun .def_264 () Bool (and .def_122 .def_263))
(define-fun .def_265 () Bool (and .def_124 .def_264))
(define-fun .def_266 () Bool (and .def_58 .def_265))
(define-fun .def_267 () Bool (and .def_126 .def_266))
(define-fun .def_514 () Bool (or .def_267 .def_513))
(define-fun .def_108 () Bool (= |.x{1437}| 0))
(define-fun .def_230 () Bool (or .def_58 .def_108))
(define-fun .def_146 () Bool (and .def_144 .def_145))
(define-fun .def_147 () Bool (and .def_68 .def_146))
(define-fun .def_149 () Bool (and .def_147 .def_148))
(define-fun .def_231 () Bool (and .def_149 .def_230))
(define-fun .def_232 () Bool (and .def_71 .def_231))
(define-fun .def_233 () Bool (and .def_151 .def_232))
(define-fun .def_235 () Bool (and .def_233 .def_234))
(define-fun .def_236 () Bool (and .def_153 .def_235))
(define-fun .def_237 () Bool (and .def_73 .def_236))
(define-fun .def_238 () Bool (and .def_156 .def_237))
(define-fun .def_239 () Bool (and .def_75 .def_238))
(define-fun .def_240 () Bool (and .def_159 .def_239))
(define-fun .def_241 () Bool (and .def_77 .def_240))
(define-fun .def_242 () Bool (and .def_60 .def_241))
(define-fun .def_243 () Bool (and .def_162 .def_242))
(define-fun .def_244 () Bool (and .def_62 .def_243))
(define-fun .def_245 () Bool (and .def_165 .def_244))
(define-fun .def_246 () Bool (and .def_82 .def_245))
(define-fun .def_247 () Bool (and .def_189 .def_246))
(define-fun .def_248 () Bool (and .def_122 .def_247))
(define-fun .def_249 () Bool (and |.loc{11}| .def_248))
(define-fun .def_250 () Bool (and .def_124 .def_249))
(define-fun .def_515 () Bool (or .def_250 .def_514))
(define-fun .def_201 () Bool (and .def_153 .def_200))
(define-fun .def_202 () Bool (and .def_73 .def_201))
(define-fun .def_203 () Bool (and .def_156 .def_202))
(define-fun .def_204 () Bool (and .def_75 .def_203))
(define-fun .def_205 () Bool (and .def_159 .def_204))
(define-fun .def_206 () Bool (and .def_77 .def_205))
(define-fun .def_219 () Bool (and .def_162 .def_206))
(define-fun .def_220 () Bool (and .def_62 .def_219))
(define-fun .def_221 () Bool (and .def_165 .def_220))
(define-fun .def_222 () Bool (and .def_167 .def_221))
(define-fun .def_223 () Bool (and .def_189 .def_222))
(define-fun .def_224 () Bool (and .def_82 .def_223))
(define-fun .def_225 () Bool (and |.loc{9}| .def_224))
(define-fun .def_226 () Bool (and |.loc{10}| .def_225))
(define-fun .def_227 () Bool (and .def_122 .def_226))
(define-fun .def_228 () Bool (and .def_58 .def_227))
(define-fun .def_229 () Bool (and .def_126 .def_228))
(define-fun .def_516 () Bool (or .def_229 .def_515))
(define-fun .def_208 () Bool (and .def_206 .def_207))
(define-fun .def_209 () Bool (and .def_162 .def_208))
(define-fun .def_210 () Bool (and .def_62 .def_209))
(define-fun .def_211 () Bool (and .def_165 .def_210))
(define-fun .def_212 () Bool (and .def_167 .def_211))
(define-fun .def_213 () Bool (and .def_189 .def_212))
(define-fun .def_214 () Bool (and .def_82 .def_213))
(define-fun .def_215 () Bool (and |.loc{9}| .def_214))
(define-fun .def_216 () Bool (and |.loc{10}| .def_215))
(define-fun .def_217 () Bool (and .def_122 .def_216))
(define-fun .def_218 () Bool (and .def_126 .def_217))
(define-fun .def_517 () Bool (or .def_218 .def_516))
(define-fun .def_184 () Bool (and .def_179 .def_183))
(define-fun .def_174 () (Array Int Int) (store .def_173 .def_172 42))
(define-fun .def_175 () (Array Int (Array Int Int)) (store .def_14 .def_44 .def_174))
(define-fun .def_176 () Bool (= |.x{1426}| .def_175))
(define-fun .def_185 () Bool (and .def_176 .def_184))
(define-fun .def_186 () Bool (or .def_58 .def_185))
(define-fun .def_150 () Bool (and .def_71 .def_149))
(define-fun .def_152 () Bool (and .def_150 .def_151))
(define-fun .def_154 () Bool (and .def_152 .def_153))
(define-fun .def_155 () Bool (and .def_73 .def_154))
(define-fun .def_157 () Bool (and .def_155 .def_156))
(define-fun .def_158 () Bool (and .def_75 .def_157))
(define-fun .def_160 () Bool (and .def_158 .def_159))
(define-fun .def_161 () Bool (and .def_77 .def_160))
(define-fun .def_163 () Bool (and .def_161 .def_162))
(define-fun .def_164 () Bool (and .def_62 .def_163))
(define-fun .def_166 () Bool (and .def_164 .def_165))
(define-fun .def_168 () Bool (and .def_166 .def_167))
(define-fun .def_187 () Bool (and .def_168 .def_186))
(define-fun .def_188 () Bool (and .def_82 .def_187))
(define-fun .def_190 () Bool (and .def_188 .def_189))
(define-fun .def_191 () Bool (and |.loc{10}| .def_190))
(define-fun .def_192 () Bool (and .def_124 .def_191))
(define-fun .def_193 () Bool (and .def_126 .def_192))
(define-fun .def_518 () Bool (or .def_193 .def_517))
(define-fun .def_139 () Bool (= .def_26 |.x{1432}|))
(define-fun .def_137 () Bool (= .def_18 |.x{1428}|))
(define-fun .def_136 () Bool (= .def_22 |.x{1430}|))
(define-fun .def_138 () Bool (and .def_136 .def_137))
(define-fun .def_140 () Bool (and .def_138 .def_139))
(define-fun .def_519 () Bool (and .def_140 .def_518))
(define-fun .def_131 () Bool (= |.x{1432}| 0))
(define-fun .def_130 () Bool (= |.x{1428}| 0))
(define-fun .def_132 () Bool (and .def_130 .def_131))
(define-fun .def_128 () (Array Int Int) (store .def_10 0 0))
(define-fun .def_129 () Bool (= |.x{103}| .def_128))
(define-fun .def_133 () Bool (and .def_129 .def_132))
(define-fun .def_134 () Bool (or .def_58 .def_133))
(define-fun .def_115 () Bool (<= |.x{1423}| |.x{1444}|))
(define-fun .def_116 () Bool (not .def_115))
(define-fun .def_112 () Bool (<= |.x{1423}| |.x{1441}|))
(define-fun .def_113 () Bool (not .def_112))
(define-fun .def_102 () (Array Int Int) (store .def_22 |.x{1441}| 400000))
(define-fun .def_103 () (Array Int Int) (store .def_102 |.x{1444}| 400000))
(define-fun .def_104 () Bool (= |.x{1430}| .def_103))
(define-fun .def_93 () (Array Int Int) (store |.x{103}| |.x{1441}| 1))
(define-fun .def_98 () Int (select .def_93 |.x{1444}|))
(define-fun .def_99 () Bool (= .def_98 0))
(define-fun .def_96 () Bool (= |.x{1444}| 0))
(define-fun .def_97 () Bool (not .def_96))
(define-fun .def_100 () Bool (and .def_97 .def_99))
(define-fun .def_105 () Bool (and .def_100 .def_104))
(define-fun .def_94 () (Array Int Int) (store .def_93 |.x{1444}| 1))
(define-fun .def_95 () Bool (= |.x{1424}| .def_94))
(define-fun .def_106 () Bool (and .def_95 .def_105))
(define-fun .def_90 () Bool (= |.x{1441}| 0))
(define-fun .def_91 () Bool (not .def_90))
(define-fun .def_107 () Bool (and .def_91 .def_106))
(define-fun .def_109 () Bool (and .def_107 .def_108))
(define-fun .def_89 () Bool (= |.x{1446}| 0))
(define-fun .def_110 () Bool (and .def_89 .def_109))
(define-fun .def_88 () Bool (= |.x{1434}| 0))
(define-fun .def_111 () Bool (and .def_88 .def_110))
(define-fun .def_114 () Bool (and .def_111 .def_113))
(define-fun .def_117 () Bool (and .def_114 .def_116))
(define-fun .def_86 () Int (select |.x{103}| |.x{1441}|))
(define-fun .def_87 () Bool (= .def_86 0))
(define-fun .def_118 () Bool (and .def_87 .def_117))
(define-fun .def_119 () Bool (or |.x{1396}| .def_118))
(define-fun .def_70 () Bool (and .def_68 .def_69))
(define-fun .def_72 () Bool (and .def_70 .def_71))
(define-fun .def_74 () Bool (and .def_72 .def_73))
(define-fun .def_76 () Bool (and .def_74 .def_75))
(define-fun .def_78 () Bool (and .def_76 .def_77))
(define-fun .def_79 () Bool (and .def_60 .def_78))
(define-fun .def_81 () Bool (and .def_79 .def_80))
(define-fun .def_83 () Bool (and .def_81 .def_82))
(define-fun .def_120 () Bool (and .def_83 .def_119))
(define-fun .def_121 () Bool (and |.loc{10}| .def_120))
(define-fun .def_123 () Bool (and .def_121 .def_122))
(define-fun .def_125 () Bool (and .def_123 .def_124))
(define-fun .def_127 () Bool (and .def_125 .def_126))
(define-fun .def_135 () Bool (and .def_127 .def_134))
(define-fun .def_520 () Bool (or .def_135 .def_519))
(define-fun .def_532 () Bool (! (and .def_520 .def_531) :trans true))
(define-fun .def_548 () Bool (and .def_62 .def_167))
(define-fun .def_549 () Bool (and .def_82 .def_548))
(define-fun .def_550 () Bool (and .def_66 .def_549))
(define-fun .def_551 () Bool (and .def_58 .def_550))
(define-fun .def_552 () Bool (! (not .def_551) :invar-property 0))
(assert true)
